************************************************************************
file with basedata            : j60_36.bas
initial value random generator: 668961297
************************************************************************
projects                      :  1
jobs (incl. supersource/sink ):  62
horizon                       :  328
RESOURCES
  - renewable                 :  4   R
  - nonrenewable              :  0   N
  - doubly constrained        :  0   D
************************************************************************
PROJECT INFORMATION:
pronr.  #jobs rel.date duedate tardcost  MPM-Time
    1     60      0       74       21       74
************************************************************************
PRECEDENCE RELATIONS:
jobnr.    #modes  #successors   successors
   1        1          3           2   3   4
   2        1          3           7   9  21
   3        1          1          22
   4        1          3           5   6   8
   5        1          3          42  45  51
   6        1          3          10  17  59
   7        1          2          38  41
   8        1          3          12  23  27
   9        1          3          11  13  16
  10        1          3          14  15  39
  11        1          2          20  47
  12        1          2          13  28
  13        1          2          18  25
  14        1          3          19  24  26
  15        1          3          20  36  43
  16        1          1          32
  17        1          1          29
  18        1          2          54  59
  19        1          2          27  31
  20        1          3          35  37  49
  21        1          2          40  48
  22        1          3          23  42  44
  23        1          1          40
  24        1          3          34  43  47
  25        1          1          46
  26        1          1          44
  27        1          2          33  36
  28        1          1          32
  29        1          1          30
  30        1          3          36  40  60
  31        1          2          37  44
  32        1          1          58
  33        1          2          34  53
  34        1          1          38
  35        1          2          50  58
  36        1          2          42  56
  37        1          1          48
  38        1          2          51  55
  39        1          2          41  54
  40        1          3          43  50  57
  41        1          1          47
  42        1          1          61
  43        1          1          49
  44        1          2          46  51
  45        1          2          46  52
  46        1          2          49  55
  47        1          2          48  50
  48        1          3          53  55  57
  49        1          1          56
  50        1          1          56
  51        1          1          54
  52        1          2          53  59
  53        1          1          60
  54        1          1          57
  55        1          1          58
  56        1          1          61
  57        1          1          61
  58        1          1          60
  59        1          1          62
  60        1          1          62
  61        1          1          62
  62        1          0        
************************************************************************
REQUESTS/DURATIONS:
jobnr. mode duration  R 1  R 2  R 3  R 4
------------------------------------------------------------------------
  1      1     0       0    0    0    0
  2      1     5       0    0    3    0
  3      1    10       0    0    0    9
  4      1    10       0    0    0   10
  5      1     9       7    0    0    0
  6      1     4       3    0    0    0
  7      1     7       0    0    0    5
  8      1    10       0    7    0    0
  9      1     5       0    0    0    1
 10      1     3       0    0    0    6
 11      1     5       0    0    0    3
 12      1     2       0    0    0    1
 13      1     6       0    5    0    0
 14      1     2       5    0    0    0
 15      1     7       0    0    0    5
 16      1     7       2    0    0    0
 17      1     8       7    0    0    0
 18      1     1       5    0    0    0
 19      1     9       0    0    6    0
 20      1     5       2    0    0    0
 21      1     6       0    0    0    4
 22      1     2       0    0    1    0
 23      1    10       0   10    0    0
 24      1     2       0    0    0    1
 25      1     5       0    3    0    0
 26      1     8       0    8    0    0
 27      1     8       0   10    0    0
 28      1     2       0    9    0    0
 29      1     1       0    0    0    6
 30      1     2       0    0    1    0
 31      1     9       0    0    5    0
 32      1     1       0    5    0    0
 33      1     1       2    0    0    0
 34      1     6       0    6    0    0
 35      1     3       0    8    0    0
 36      1     5       0    0    0    9
 37      1     8       2    0    0    0
 38      1     6       0    0    0    4
 39      1     3       0    0    3    0
 40      1     3       0    0    0    6
 41      1     4       0    5    0    0
 42      1     4       0    8    0    0
 43      1     6       0    0    0    1
 44      1     5       0    0    6    0
 45      1     6       6    0    0    0
 46      1     7       0    7    0    0
 47      1     9       0    0    0    7
 48      1     9       0    5    0    0
 49      1     8       4    0    0    0
 50      1     2       0    0    0    2
 51      1     7       0    6    0    0
 52      1     4       0    0   10    0
 53      1    10       0    3    0    0
 54      1     3       0    0    0    6
 55      1     9       0    5    0    0
 56      1     4       0    0    0    7
 57      1     4       0    9    0    0
 58      1     3       0    0    6    0
 59      1     5      10    0    0    0
 60      1     8       0    9    0    0
 61      1     5       0    8    0    0
 62      1     0       0    0    0    0
************************************************************************
RESOURCEAVAILABILITIES:
  R 1  R 2  R 3  R 4
   19   37   16   29
************************************************************************
Job	#risk	Type	VL	mu	sigma	Type	VL	mu	sigma
3	1	8	0.1	10	1
7	1	1	0.05	1.25	0.0625
13	1	4	0.2	5	1
16	2	3	0.2	3.75	0.75	8	0.1	10	1
20	2	1	0.05	1.25	0.0625	8	0.05	10	0.5
24	2	6	0.1	7.5	0.75	8	0.1	10	1
26	2	2	0.1	2.5	0.25	4	0.2	5	1
31	2	6	0.1	7.5	0.75	8	0.1	10	1
32	1	1	0.1	1.25	0.125
34	2	6	0.05	7.5	0.375	7	0.2	8.75	1.75
39	2	1	0.1	1.25	0.125	8	0.2	10	2
42	1	1	0.05	1.25	0.0625
43	2	1	0.2	1.25	0.25	2	0.2	2.5	0.5
46	1	4	0.1	5	0.5
50	1	5	0.1	6.25	0.625
54	1	3	0.2	3.75	0.75
55	1	3	0.1	3.75	0.375
59	1	6	0.2	7.5	1.5
